p cnf 459 1602
1 0
2 0
3 0
4 0
5 0
6 0
7 0
8 0
9 0
10 0
-11 0
-12 0
-13 0
-14 0
-15 0
-16 0
-17 0
-18 0
-19 0
-20 0
-1 21 -22 0
1 -21 -22 0
-1 -21 22 0
1 21 22 0
-23 -22 0
1 -24 -25 0
-1 24 -25 0
25 -1 -24 0
25 1 24 0
-26 25 0
-21 27 0
-24 27 0
21 24 -27 0
1 -27 -28 0
-1 27 -28 0
-1 -27 28 0
1 27 28 0
-29 28 0
21 30 0
24 30 0
-24 -21 -30 0
-1 30 -31 0
1 -30 -31 0
31 -30 -1 0
1 30 31 0
-32 -31 0
24 -33 -34 0
33 -24 -34 0
-24 -33 34 0
33 24 34 0
-23 -34 0
33 -21 -35 0
21 -33 -35 0
35 -33 -21 0
35 33 21 0
-26 35 0
33 -27 -36 0
-33 27 -36 0
-33 -27 36 0
33 27 36 0
-29 36 0
-33 30 -37 0
33 -30 -37 0
37 -30 -33 0
33 30 37 0
-32 -37 0
-2 38 -39 0
2 -38 -39 0
-2 -38 39 0
2 38 39 0
-23 -39 0
2 -40 -41 0
-2 40 -41 0
41 -2 -40 0
41 2 40 0
-26 41 0
-38 42 0
-40 42 0
-43 42 0
-44 42 0
-45 42 0
-46 42 0
-47 42 0
48 0
2 -42 -49 0
-2 42 -49 0
-2 -42 49 0
2 42 49 0
-29 49 0
38 50 0
40 50 0
43 50 0
44 50 0
45 50 0
46 50 0
47 50 0
-51 0
-2 50 -52 0
2 -50 -52 0
52 -50 -2 0
2 50 52 0
-32 -52 0
-53 40 -54 0
53 -40 -54 0
-53 -40 54 0
53 40 54 0
-23 -54 0
53 -43 -55 0
-53 43 -55 0
55 -53 -43 0
55 53 43 0
-26 55 0
-40 56 0
-43 56 0
-44 56 0
-45 56 0
-46 56 0
-47 56 0
57 0
53 -56 -58 0
-53 56 -58 0
-53 -56 58 0
53 56 58 0
-29 58 0
40 59 0
43 59 0
44 59 0
45 59 0
46 59 0
47 59 0
-60 0
-53 59 -61 0
53 -59 -61 0
61 -59 -53 0
53 59 61 0
-32 -61 0
-62 43 -63 0
62 -43 -63 0
-62 -43 63 0
62 43 63 0
-23 -63 0
62 -44 -64 0
-62 44 -64 0
64 -62 -44 0
64 62 44 0
-26 64 0
-43 65 0
-44 65 0
-45 65 0
-46 65 0
-47 65 0
43 44 45 46 47 -65 0
62 -65 -66 0
-62 65 -66 0
-62 -65 66 0
62 65 66 0
-29 66 0
43 67 0
44 67 0
45 67 0
46 67 0
47 67 0
-68 0
-62 67 -69 0
62 -67 -69 0
69 -67 -62 0
62 67 69 0
-32 -69 0
-70 44 -71 0
70 -44 -71 0
-70 -44 71 0
70 44 71 0
-23 -71 0
70 -45 -72 0
-70 45 -72 0
72 -70 -45 0
72 70 45 0
-26 72 0
-44 73 0
-45 73 0
-46 73 0
-47 73 0
44 45 46 47 -73 0
70 -73 -74 0
-70 73 -74 0
-70 -73 74 0
70 73 74 0
-29 74 0
44 75 0
45 75 0
46 75 0
47 75 0
-76 0
-70 75 -77 0
70 -75 -77 0
77 -75 -70 0
70 75 77 0
-32 -77 0
-78 45 -79 0
78 -45 -79 0
-78 -45 79 0
78 45 79 0
-23 -79 0
78 -46 -80 0
-78 46 -80 0
80 -78 -46 0
80 78 46 0
-26 80 0
78 -73 -81 0
-78 73 -81 0
-78 -73 81 0
78 73 81 0
-29 81 0
-78 75 -82 0
78 -75 -82 0
82 -75 -78 0
78 75 82 0
-32 -82 0
-83 46 -84 0
83 -46 -84 0
-83 -46 84 0
83 46 84 0
-23 -84 0
83 -47 -85 0
-83 47 -85 0
85 -83 -47 0
85 83 47 0
-26 85 0
83 -73 -86 0
-83 73 -86 0
-83 -73 86 0
83 73 86 0
-29 86 0
-83 75 -87 0
83 -75 -87 0
87 -75 -83 0
83 75 87 0
-32 -87 0
-88 47 -89 0
88 -47 -89 0
-88 -47 89 0
88 47 89 0
-23 -89 0
88 -44 -90 0
-88 44 -90 0
90 -88 -44 0
90 88 44 0
-26 90 0
88 -73 -91 0
-88 73 -91 0
-88 -73 91 0
88 73 91 0
-29 91 0
-88 75 -92 0
88 -75 -92 0
92 -75 -88 0
88 75 92 0
-32 -92 0
-3 93 -94 0
3 -93 -94 0
-3 -93 94 0
3 93 94 0
-23 -94 0
3 -95 -96 0
-3 95 -96 0
96 -3 -95 0
96 3 95 0
-26 96 0
-93 97 0
-95 97 0
-98 97 0
-99 97 0
-100 97 0
-101 97 0
-102 97 0
103 0
3 -97 -104 0
-3 97 -104 0
-3 -97 104 0
3 97 104 0
-29 104 0
93 105 0
95 105 0
98 105 0
99 105 0
100 105 0
101 105 0
102 105 0
-106 0
-3 105 -107 0
3 -105 -107 0
107 -105 -3 0
3 105 107 0
-32 -107 0
-108 95 -109 0
108 -95 -109 0
-108 -95 109 0
108 95 109 0
-23 -109 0
108 -98 -110 0
-108 98 -110 0
110 -108 -98 0
110 108 98 0
-26 110 0
-95 111 0
-98 111 0
-99 111 0
-100 111 0
-101 111 0
-102 111 0
112 0
108 -111 -113 0
-108 111 -113 0
-108 -111 113 0
108 111 113 0
-29 113 0
95 114 0
98 114 0
99 114 0
100 114 0
101 114 0
102 114 0
-115 0
-108 114 -116 0
108 -114 -116 0
116 -114 -108 0
108 114 116 0
-32 -116 0
-117 98 -118 0
117 -98 -118 0
-117 -98 118 0
117 98 118 0
-23 -118 0
117 -99 -119 0
-117 99 -119 0
119 -117 -99 0
119 117 99 0
-26 119 0
-98 120 0
-99 120 0
-100 120 0
-101 120 0
-102 120 0
98 99 100 101 102 -120 0
117 -120 -121 0
-117 120 -121 0
-117 -120 121 0
117 120 121 0
-29 121 0
98 122 0
99 122 0
100 122 0
101 122 0
102 122 0
-123 0
-117 122 -124 0
117 -122 -124 0
124 -122 -117 0
117 122 124 0
-32 -124 0
-125 99 -126 0
125 -99 -126 0
-125 -99 126 0
125 99 126 0
-23 -126 0
125 -100 -127 0
-125 100 -127 0
127 -125 -100 0
127 125 100 0
-26 127 0
-99 128 0
-100 128 0
-101 128 0
-102 128 0
99 100 101 102 -128 0
125 -128 -129 0
-125 128 -129 0
-125 -128 129 0
125 128 129 0
-29 129 0
99 130 0
100 130 0
101 130 0
102 130 0
-131 0
-125 130 -132 0
125 -130 -132 0
132 -130 -125 0
125 130 132 0
-32 -132 0
-133 100 -134 0
133 -100 -134 0
-133 -100 134 0
133 100 134 0
-23 -134 0
133 -101 -135 0
-133 101 -135 0
135 -133 -101 0
135 133 101 0
-26 135 0
133 -128 -136 0
-133 128 -136 0
-133 -128 136 0
133 128 136 0
-29 136 0
-133 130 -137 0
133 -130 -137 0
137 -130 -133 0
133 130 137 0
-32 -137 0
-138 101 -139 0
138 -101 -139 0
-138 -101 139 0
138 101 139 0
-23 -139 0
138 -102 -140 0
-138 102 -140 0
140 -138 -102 0
140 138 102 0
-26 140 0
138 -128 -141 0
-138 128 -141 0
-138 -128 141 0
138 128 141 0
-29 141 0
-138 130 -142 0
138 -130 -142 0
142 -130 -138 0
138 130 142 0
-32 -142 0
-143 102 -144 0
143 -102 -144 0
-143 -102 144 0
143 102 144 0
-23 -144 0
143 -99 -145 0
-143 99 -145 0
145 -143 -99 0
145 143 99 0
-26 145 0
143 -128 -146 0
-143 128 -146 0
-143 -128 146 0
143 128 146 0
-29 146 0
-143 130 -147 0
143 -130 -147 0
147 -130 -143 0
143 130 147 0
-32 -147 0
-4 148 -149 0
4 -148 -149 0
-4 -148 149 0
4 148 149 0
-23 -149 0
4 -150 -151 0
-4 150 -151 0
151 -4 -150 0
151 4 150 0
-26 151 0
-148 152 0
-150 152 0
-153 152 0
148 150 153 -152 0
4 -152 -154 0
-4 152 -154 0
-4 -152 154 0
4 152 154 0
-29 154 0
148 155 0
150 155 0
153 155 0
-148 -150 -153 -155 0
-4 155 -156 0
4 -155 -156 0
156 -155 -4 0
4 155 156 0
-32 -156 0
-157 150 -158 0
157 -150 -158 0
-157 -150 158 0
157 150 158 0
-23 -158 0
157 -153 -159 0
-157 153 -159 0
159 -157 -153 0
159 157 153 0
-26 159 0
-150 160 0
-153 160 0
150 153 -160 0
157 -160 -161 0
-157 160 -161 0
-157 -160 161 0
157 160 161 0
-29 161 0
150 162 0
153 162 0
-150 -153 -162 0
-157 162 -163 0
157 -162 -163 0
163 -162 -157 0
157 162 163 0
-32 -163 0
-164 153 -165 0
164 -153 -165 0
-164 -153 165 0
164 153 165 0
-23 -165 0
164 -153 -166 0
-164 153 -166 0
166 -164 -153 0
166 164 153 0
-26 166 0
-29 166 0
-32 166 0
-5 167 -168 0
5 -167 -168 0
-5 -167 168 0
5 167 168 0
-23 -168 0
5 -169 -170 0
-5 169 -170 0
170 -5 -169 0
170 5 169 0
-26 170 0
-167 171 0
-169 171 0
-172 171 0
-173 171 0
-174 171 0
167 169 172 173 174 -171 0
5 -171 -175 0
-5 171 -175 0
-5 -171 175 0
5 171 175 0
-29 175 0
167 176 0
169 176 0
172 176 0
173 176 0
174 176 0
-177 0
-5 176 -178 0
5 -176 -178 0
178 -176 -5 0
5 176 178 0
-32 -178 0
-179 169 -180 0
179 -169 -180 0
-179 -169 180 0
179 169 180 0
-23 -180 0
179 -172 -181 0
-179 172 -181 0
181 -179 -172 0
181 179 172 0
-26 181 0
-169 182 0
-172 182 0
-173 182 0
-174 182 0
169 172 173 174 -182 0
179 -182 -183 0
-179 182 -183 0
-179 -182 183 0
179 182 183 0
-29 183 0
169 184 0
172 184 0
173 184 0
174 184 0
-185 0
-179 184 -186 0
179 -184 -186 0
186 -184 -179 0
179 184 186 0
-32 -186 0
-187 172 -188 0
187 -172 -188 0
-187 -172 188 0
187 172 188 0
-23 -188 0
187 -173 -189 0
-187 173 -189 0
189 -187 -173 0
189 187 173 0
-26 189 0
-172 190 0
-173 190 0
-174 190 0
172 173 174 -190 0
187 -190 -191 0
-187 190 -191 0
-187 -190 191 0
187 190 191 0
-29 191 0
172 192 0
173 192 0
174 192 0
-172 -173 -174 -192 0
-187 192 -193 0
187 -192 -193 0
193 -192 -187 0
187 192 193 0
-32 -193 0
-194 173 -195 0
194 -173 -195 0
-194 -173 195 0
194 173 195 0
-23 -195 0
194 -174 -196 0
-194 174 -196 0
196 -194 -174 0
196 194 174 0
-26 196 0
194 -190 -197 0
-194 190 -197 0
-194 -190 197 0
194 190 197 0
-29 197 0
-194 192 -198 0
194 -192 -198 0
198 -192 -194 0
194 192 198 0
-32 -198 0
-199 174 -200 0
199 -174 -200 0
-199 -174 200 0
199 174 200 0
-23 -200 0
199 -172 -201 0
-199 172 -201 0
201 -199 -172 0
201 199 172 0
-26 201 0
199 -190 -202 0
-199 190 -202 0
-199 -190 202 0
199 190 202 0
-29 202 0
-199 192 -203 0
199 -192 -203 0
203 -192 -199 0
199 192 203 0
-32 -203 0
-6 204 -205 0
6 -204 -205 0
-6 -204 205 0
6 204 205 0
-23 -205 0
6 -206 -207 0
-6 206 -207 0
207 -6 -206 0
207 6 206 0
-26 207 0
-204 208 0
-206 208 0
-209 208 0
-210 208 0
-211 208 0
-212 208 0
213 0
6 -208 -214 0
-6 208 -214 0
-6 -208 214 0
6 208 214 0
-29 214 0
204 215 0
206 215 0
209 215 0
210 215 0
211 215 0
212 215 0
-216 0
-6 215 -217 0
6 -215 -217 0
217 -215 -6 0
6 215 217 0
-32 -217 0
-218 206 -219 0
218 -206 -219 0
-218 -206 219 0
218 206 219 0
-23 -219 0
218 -209 -220 0
-218 209 -220 0
220 -218 -209 0
220 218 209 0
-26 220 0
-206 221 0
-209 221 0
-210 221 0
-211 221 0
-212 221 0
206 209 210 211 212 -221 0
218 -221 -222 0
-218 221 -222 0
-218 -221 222 0
218 221 222 0
-29 222 0
206 223 0
209 223 0
210 223 0
211 223 0
212 223 0
-224 0
-218 223 -225 0
218 -223 -225 0
225 -223 -218 0
218 223 225 0
-32 -225 0
-226 209 -227 0
226 -209 -227 0
-226 -209 227 0
226 209 227 0
-23 -227 0
226 -210 -228 0
-226 210 -228 0
228 -226 -210 0
228 226 210 0
-26 228 0
-209 229 0
-210 229 0
-211 229 0
-212 229 0
209 210 211 212 -229 0
226 -229 -230 0
-226 229 -230 0
-226 -229 230 0
226 229 230 0
-29 230 0
209 231 0
210 231 0
211 231 0
212 231 0
-232 0
-226 231 -233 0
226 -231 -233 0
233 -231 -226 0
226 231 233 0
-32 -233 0
-234 210 -235 0
234 -210 -235 0
-234 -210 235 0
234 210 235 0
-23 -235 0
234 -211 -236 0
-234 211 -236 0
236 -234 -211 0
236 234 211 0
-26 236 0
-210 237 0
-211 237 0
-212 237 0
210 211 212 -237 0
234 -237 -238 0
-234 237 -238 0
-234 -237 238 0
234 237 238 0
-29 238 0
210 239 0
211 239 0
212 239 0
-210 -211 -212 -239 0
-234 239 -240 0
234 -239 -240 0
240 -239 -234 0
234 239 240 0
-32 -240 0
-241 211 -242 0
241 -211 -242 0
-241 -211 242 0
241 211 242 0
-23 -242 0
241 -212 -243 0
-241 212 -243 0
243 -241 -212 0
243 241 212 0
-26 243 0
-211 244 0
-212 244 0
211 212 -244 0
241 -244 -245 0
-241 244 -245 0
-241 -244 245 0
241 244 245 0
-29 245 0
211 246 0
212 246 0
-211 -212 -246 0
-241 246 -247 0
241 -246 -247 0
247 -246 -241 0
241 246 247 0
-32 -247 0
-248 212 -249 0
248 -212 -249 0
-248 -212 249 0
248 212 249 0
-23 -249 0
248 -211 -250 0
-248 211 -250 0
250 -248 -211 0
250 248 211 0
-26 250 0
248 -244 -251 0
-248 244 -251 0
-248 -244 251 0
248 244 251 0
-29 251 0
-248 246 -252 0
248 -246 -252 0
252 -246 -248 0
248 246 252 0
-32 -252 0
-7 253 -254 0
7 -253 -254 0
-7 -253 254 0
7 253 254 0
-23 -254 0
7 -255 -256 0
-7 255 -256 0
256 -7 -255 0
256 7 255 0
-26 256 0
-253 257 0
-255 257 0
-258 257 0
-259 257 0
-260 257 0
253 255 258 259 260 -257 0
7 -257 -261 0
-7 257 -261 0
-7 -257 261 0
7 257 261 0
-29 261 0
253 262 0
255 262 0
258 262 0
259 262 0
260 262 0
-263 0
-7 262 -264 0
7 -262 -264 0
264 -262 -7 0
7 262 264 0
-32 -264 0
-265 255 -266 0
265 -255 -266 0
-265 -255 266 0
265 255 266 0
-23 -266 0
265 -258 -267 0
-265 258 -267 0
267 -265 -258 0
267 265 258 0
-26 267 0
-255 268 0
-258 268 0
-259 268 0
-260 268 0
255 258 259 260 -268 0
265 -268 -269 0
-265 268 -269 0
-265 -268 269 0
265 268 269 0
-29 269 0
255 270 0
258 270 0
259 270 0
260 270 0
-271 0
-265 270 -272 0
265 -270 -272 0
272 -270 -265 0
265 270 272 0
-32 -272 0
-273 258 -274 0
273 -258 -274 0
-273 -258 274 0
273 258 274 0
-23 -274 0
273 -259 -275 0
-273 259 -275 0
275 -273 -259 0
275 273 259 0
-26 275 0
273 -268 -276 0
-273 268 -276 0
-273 -268 276 0
273 268 276 0
-29 276 0
-273 270 -277 0
273 -270 -277 0
277 -270 -273 0
273 270 277 0
-32 -277 0
-278 259 -279 0
278 -259 -279 0
-278 -259 279 0
278 259 279 0
-23 -279 0
278 -260 -280 0
-278 260 -280 0
280 -278 -260 0
280 278 260 0
-26 280 0
278 -268 -281 0
-278 268 -281 0
-278 -268 281 0
278 268 281 0
-29 281 0
-278 270 -282 0
278 -270 -282 0
282 -270 -278 0
278 270 282 0
-32 -282 0
-283 260 -284 0
283 -260 -284 0
-283 -260 284 0
283 260 284 0
-23 -284 0
283 -255 -285 0
-283 255 -285 0
285 -283 -255 0
285 283 255 0
-26 285 0
283 -268 -286 0
-283 268 -286 0
-283 -268 286 0
283 268 286 0
-29 286 0
-283 270 -287 0
283 -270 -287 0
287 -270 -283 0
283 270 287 0
-32 -287 0
-8 288 -289 0
8 -288 -289 0
-8 -288 289 0
8 288 289 0
-23 -289 0
8 -290 -291 0
-8 290 -291 0
291 -8 -290 0
291 8 290 0
-26 291 0
-288 292 0
-290 292 0
-293 292 0
-294 292 0
-295 292 0
288 290 293 294 295 -292 0
8 -292 -296 0
-8 292 -296 0
-8 -292 296 0
8 292 296 0
-29 296 0
288 297 0
290 297 0
293 297 0
294 297 0
295 297 0
-298 0
-8 297 -299 0
8 -297 -299 0
299 -297 -8 0
8 297 299 0
-32 -299 0
-300 290 -301 0
300 -290 -301 0
-300 -290 301 0
300 290 301 0
-23 -301 0
300 -293 -302 0
-300 293 -302 0
302 -300 -293 0
302 300 293 0
-26 302 0
-290 303 0
-293 303 0
-294 303 0
-295 303 0
290 293 294 295 -303 0
300 -303 -304 0
-300 303 -304 0
-300 -303 304 0
300 303 304 0
-29 304 0
290 305 0
293 305 0
294 305 0
295 305 0
-306 0
-300 305 -307 0
300 -305 -307 0
307 -305 -300 0
300 305 307 0
-32 -307 0
-308 293 -309 0
308 -293 -309 0
-308 -293 309 0
308 293 309 0
-23 -309 0
308 -294 -310 0
-308 294 -310 0
310 -308 -294 0
310 308 294 0
-26 310 0
-293 311 0
-294 311 0
-295 311 0
293 294 295 -311 0
308 -311 -312 0
-308 311 -312 0
-308 -311 312 0
308 311 312 0
-29 312 0
293 313 0
294 313 0
295 313 0
-293 -294 -295 -313 0
-308 313 -314 0
308 -313 -314 0
314 -313 -308 0
308 313 314 0
-32 -314 0
-315 294 -316 0
315 -294 -316 0
-315 -294 316 0
315 294 316 0
-23 -316 0
315 -295 -317 0
-315 295 -317 0
317 -315 -295 0
317 315 295 0
-26 317 0
315 -311 -318 0
-315 311 -318 0
-315 -311 318 0
315 311 318 0
-29 318 0
-315 313 -319 0
315 -313 -319 0
319 -313 -315 0
315 313 319 0
-32 -319 0
-320 295 -321 0
320 -295 -321 0
-320 -295 321 0
320 295 321 0
-23 -321 0
320 -293 -322 0
-320 293 -322 0
322 -320 -293 0
322 320 293 0
-26 322 0
320 -311 -323 0
-320 311 -323 0
-320 -311 323 0
320 311 323 0
-29 323 0
-320 313 -324 0
320 -313 -324 0
324 -313 -320 0
320 313 324 0
-32 -324 0
-9 325 -326 0
9 -325 -326 0
-9 -325 326 0
9 325 326 0
-23 -326 0
9 -327 -328 0
-9 327 -328 0
328 -9 -327 0
328 9 327 0
-26 328 0
-325 329 0
-327 329 0
-330 329 0
-331 329 0
-332 329 0
-333 329 0
-334 329 0
335 0
9 -329 -336 0
-9 329 -336 0
-9 -329 336 0
9 329 336 0
-29 336 0
325 337 0
327 337 0
330 337 0
331 337 0
332 337 0
333 337 0
334 337 0
-338 0
-9 337 -339 0
9 -337 -339 0
339 -337 -9 0
9 337 339 0
-32 -339 0
-340 327 -341 0
340 -327 -341 0
-340 -327 341 0
340 327 341 0
-23 -341 0
340 -330 -342 0
-340 330 -342 0
342 -340 -330 0
342 340 330 0
-26 342 0
-327 343 0
-330 343 0
-331 343 0
-332 343 0
-333 343 0
-334 343 0
344 0
340 -343 -345 0
-340 343 -345 0
-340 -343 345 0
340 343 345 0
-29 345 0
327 346 0
330 346 0
331 346 0
332 346 0
333 346 0
334 346 0
-347 0
-340 346 -348 0
340 -346 -348 0
348 -346 -340 0
340 346 348 0
-32 -348 0
-349 330 -350 0
349 -330 -350 0
-349 -330 350 0
349 330 350 0
-23 -350 0
349 -331 -351 0
-349 331 -351 0
351 -349 -331 0
351 349 331 0
-26 351 0
-330 352 0
-331 352 0
-332 352 0
-333 352 0
-334 352 0
330 331 332 333 334 -352 0
349 -352 -353 0
-349 352 -353 0
-349 -352 353 0
349 352 353 0
-29 353 0
330 354 0
331 354 0
332 354 0
333 354 0
334 354 0
-355 0
-349 354 -356 0
349 -354 -356 0
356 -354 -349 0
349 354 356 0
-32 -356 0
-357 331 -358 0
357 -331 -358 0
-357 -331 358 0
357 331 358 0
-23 -358 0
357 -332 -359 0
-357 332 -359 0
359 -357 -332 0
359 357 332 0
-26 359 0
-331 360 0
-332 360 0
-333 360 0
-334 360 0
331 332 333 334 -360 0
357 -360 -361 0
-357 360 -361 0
-357 -360 361 0
357 360 361 0
-29 361 0
331 362 0
332 362 0
333 362 0
334 362 0
-363 0
-357 362 -364 0
357 -362 -364 0
364 -362 -357 0
357 362 364 0
-32 -364 0
-365 332 -366 0
365 -332 -366 0
-365 -332 366 0
365 332 366 0
-23 -366 0
365 -333 -367 0
-365 333 -367 0
367 -365 -333 0
367 365 333 0
-26 367 0
-332 368 0
-333 368 0
-334 368 0
332 333 334 -368 0
365 -368 -369 0
-365 368 -369 0
-365 -368 369 0
365 368 369 0
-29 369 0
332 370 0
333 370 0
334 370 0
-332 -333 -334 -370 0
-365 370 -371 0
365 -370 -371 0
371 -370 -365 0
365 370 371 0
-32 -371 0
-372 333 -373 0
372 -333 -373 0
-372 -333 373 0
372 333 373 0
-23 -373 0
372 -334 -374 0
-372 334 -374 0
374 -372 -334 0
374 372 334 0
-26 374 0
372 -368 -375 0
-372 368 -375 0
-372 -368 375 0
372 368 375 0
-29 375 0
-372 370 -376 0
372 -370 -376 0
376 -370 -372 0
372 370 376 0
-32 -376 0
-377 334 -378 0
377 -334 -378 0
-377 -334 378 0
377 334 378 0
-23 -378 0
377 -332 -379 0
-377 332 -379 0
379 -377 -332 0
379 377 332 0
-26 379 0
377 -368 -380 0
-377 368 -380 0
-377 -368 380 0
377 368 380 0
-29 380 0
-377 370 -381 0
377 -370 -381 0
381 -370 -377 0
377 370 381 0
-32 -381 0
-10 382 -383 0
10 -382 -383 0
-10 -382 383 0
10 382 383 0
-23 -383 0
10 -384 -385 0
-10 384 -385 0
385 -10 -384 0
385 10 384 0
-26 385 0
-382 386 0
-384 386 0
-387 386 0
-388 386 0
-389 386 0
382 384 387 388 389 -386 0
10 -386 -390 0
-10 386 -390 0
-10 -386 390 0
10 386 390 0
-29 390 0
382 391 0
384 391 0
387 391 0
388 391 0
389 391 0
-392 0
-10 391 -393 0
10 -391 -393 0
393 -391 -10 0
10 391 393 0
-32 -393 0
-394 384 -395 0
394 -384 -395 0
-394 -384 395 0
394 384 395 0
-23 -395 0
394 -387 -396 0
-394 387 -396 0
396 -394 -387 0
396 394 387 0
-26 396 0
-384 397 0
-387 397 0
-388 397 0
-389 397 0
384 387 388 389 -397 0
394 -397 -398 0
-394 397 -398 0
-394 -397 398 0
394 397 398 0
-29 398 0
384 399 0
387 399 0
388 399 0
389 399 0
-400 0
-394 399 -401 0
394 -399 -401 0
401 -399 -394 0
394 399 401 0
-32 -401 0
-402 387 -403 0
402 -387 -403 0
-402 -387 403 0
402 387 403 0
-23 -403 0
402 -388 -404 0
-402 388 -404 0
404 -402 -388 0
404 402 388 0
-26 404 0
-387 405 0
-388 405 0
-389 405 0
387 388 389 -405 0
402 -405 -406 0
-402 405 -406 0
-402 -405 406 0
402 405 406 0
-29 406 0
387 407 0
388 407 0
389 407 0
-387 -388 -389 -407 0
-402 407 -408 0
402 -407 -408 0
408 -407 -402 0
402 407 408 0
-32 -408 0
-409 388 -410 0
409 -388 -410 0
-409 -388 410 0
409 388 410 0
-23 -410 0
409 -389 -411 0
-409 389 -411 0
411 -409 -389 0
411 409 389 0
-26 411 0
-388 412 0
-389 412 0
388 389 -412 0
409 -412 -413 0
-409 412 -413 0
-409 -412 413 0
409 412 413 0
-29 413 0
388 414 0
389 414 0
-388 -389 -414 0
-409 414 -415 0
409 -414 -415 0
415 -414 -409 0
409 414 415 0
-32 -415 0
-416 389 -417 0
416 -389 -417 0
-416 -389 417 0
416 389 417 0
-23 -417 0
416 -388 -418 0
-416 388 -418 0
418 -416 -388 0
418 416 388 0
-26 418 0
416 -412 -419 0
-416 412 -419 0
-416 -412 419 0
416 412 419 0
-29 419 0
-416 414 -420 0
416 -414 -420 0
420 -414 -416 0
416 414 420 0
-32 -420 0
-11 421 -422 0
11 -421 -422 0
-11 -421 422 0
11 421 422 0
-23 -422 0
11 -421 -423 0
-11 421 -423 0
423 -11 -421 0
423 11 421 0
-26 423 0
-29 423 0
-32 423 0
-12 424 -425 0
12 -424 -425 0
-12 -424 425 0
12 424 425 0
-23 -425 0
12 -424 -426 0
-12 424 -426 0
426 -12 -424 0
426 12 424 0
-26 426 0
-29 426 0
-32 426 0
-13 427 -428 0
13 -427 -428 0
-13 -427 428 0
13 427 428 0
-23 -428 0
13 -427 -429 0
-13 427 -429 0
429 -13 -427 0
429 13 427 0
-26 429 0
-29 429 0
-32 429 0
-14 430 -431 0
14 -430 -431 0
-14 -430 431 0
14 430 431 0
-23 -431 0
14 -430 -432 0
-14 430 -432 0
432 -14 -430 0
432 14 430 0
-26 432 0
-29 432 0
-32 432 0
-15 433 -434 0
15 -433 -434 0
-15 -433 434 0
15 433 434 0
-23 -434 0
15 -433 -435 0
-15 433 -435 0
435 -15 -433 0
435 15 433 0
-26 435 0
-29 435 0
-32 435 0
-16 436 -437 0
16 -436 -437 0
-16 -436 437 0
16 436 437 0
-23 -437 0
16 -436 -438 0
-16 436 -438 0
438 -16 -436 0
438 16 436 0
-26 438 0
-29 438 0
-32 438 0
-17 439 -440 0
17 -439 -440 0
-17 -439 440 0
17 439 440 0
-23 -440 0
17 -439 -441 0
-17 439 -441 0
441 -17 -439 0
441 17 439 0
-26 441 0
-29 441 0
-32 441 0
-18 442 -443 0
18 -442 -443 0
-18 -442 443 0
18 442 443 0
-23 -443 0
18 -442 -444 0
-18 442 -444 0
444 -18 -442 0
444 18 442 0
-26 444 0
-29 444 0
-32 444 0
-19 445 -446 0
19 -445 -446 0
-19 -445 446 0
19 445 446 0
-23 -446 0
19 -445 -447 0
-19 445 -447 0
447 -19 -445 0
447 19 445 0
-26 447 0
-29 447 0
-32 447 0
-20 448 -449 0
20 -448 -449 0
-20 -448 449 0
20 448 449 0
-23 -449 0
20 -448 -450 0
-20 448 -450 0
450 -20 -448 0
450 20 448 0
-26 450 0
-29 450 0
-32 450 0
23 26 29 32 0
-23 -26 0
-23 -29 0
-23 -32 0
-26 -29 0
-26 -32 0
-29 -32 0
21 -451 0
-451 -24 0
-451 -38 0
-451 -40 0
43 -451 0
-451 -44 0
45 -451 0
-451 -46 0
-451 -47 0
93 -451 0
95 -451 0
-451 -98 0
99 -451 0
100 -451 0
-451 -101 0
102 -451 0
148 -451 0
150 -451 0
-451 -153 0
167 -451 0
-451 -169 0
-451 -172 0
-451 -173 0
174 -451 0
-451 -204 0
-451 -206 0
-451 -209 0
210 -451 0
211 -451 0
-451 -212 0
-451 -253 0
255 -451 0
258 -451 0
-451 -259 0
260 -451 0
288 -451 0
-451 -290 0
-451 -293 0
-451 -294 0
295 -451 0
-451 -325 0
-451 -327 0
-451 -330 0
331 -451 0
332 -451 0
-451 -333 0
-451 -334 0
382 -451 0
-451 -384 0
-451 -387 0
-451 -388 0
389 -451 0
-451 -421 0
-451 -424 0
-451 -427 0
-451 -430 0
-451 -433 0
-451 -436 0
-451 -439 0
-451 -442 0
-451 -445 0
-451 -448 0
451 0
-452 0
-453 0
-454 0
-455 0
-456 0
-457 0
-458 0
-459 0
